225
155.42 150.65
375.92 164.65
183.92 150.65
205.42 150.65
205.42 171.65
226.42 171.65
226.42 186.15
226.42 207.15
226.42 235.65
226.42 264.15
226.42 292.65
226.42 314.15
226.42 335.65
205.42 335.65
190.92 335.65
190.92 328.15
176.92 328.15
176.92 299.65
155.42 299.65
155.42 328.15
155.42 356.65
183.92 356.65
219.42 356.65
240.92 356.65
269.42 356.65
290.42 356.65
387.42 136.15
318.92 356.65
318.92 335.65
318.92 328.15
318.92 299.65
297.92 299.65
290.42 328.15
290.42 335.65
297.92 328.15
254.92 335.65
254.92 314.15
254.92 292.65
254.92 271.65
254.92 243.15
254.92 221.65
254.92 193.15
254.92 171.65
276.42 171.65
296.42 150.65
276.42 150.65
375.92 150.65
308.92 150.65
354.92 164.65
338.42 174.65
354.92 174.65
338.42 200.15
338.42 221.65
354.92 221.65
354.92 200.15
361.92 200.15
361.92 186.15
383.42 186.15
383.42 179.15
404.42 179.15
404.42 186.15
418.92 186.15
418.92 200.15
432.92 200.15
432.92 221.65
418.92 221.65
418.92 235.65
397.42 235.65
397.42 243.15
375.92 243.15
375.92 257.15
368.92 257.15
368.92 264.15
347.42 264.15
347.42 278.65
336.42 278.65
336.42 328.15
347.42 328.15
347.42 342.65
368.92 342.65
368.92 353.65
418.92 353.65
418.92 342.65
432.92 342.65
432.92 356.65
447.42 356.65
447.42 321.15
447.42 292.65
432.92 292.65
432.92 314.15
418.92 314.15
418.92 321.15
397.42 321.15
397.42 333.65
375.92 333.65
375.92 321.15
361.92 321.15
361.92 299.65
375.92 299.65
5.92 285.65
7.42 285.65
7.42 271.65
8.92 271.65
8.92 264.15
9.92 264.15
9.92 250.15
4.42 250.15
4.42 243.15
1.42 243.15
1.42 214.65
1.42 193.15
7.42 193.15
7.42 179.15
9.92 179.15
9.92 167.65
9.92 167.65
9.92 150.65
9.92 150.65
4.42 150.65
5.92 150.65
5.92 171.65
6.92 171.65
6.92 193.15
6.92 214.65
6.92 243.15
6.92 271.65
6.92 292.65
6.92 317.15
6.92 335.65
0.42 335.65
0.42 356.65
6.92 356.65
7.42 150.65
9.92 356.65
0.92 356.65
9.42 356.65
9.42 342.65
3.92 342.65
0.92 342.65
0.92 335.65
0.92 321.15
4.92 321.15
4.92 278.65
0.92 278.65
0.92 257.15
9.42 257.15
9.42 250.15
5.42 250.15
0.92 250.15
2.92 250.15
2.92 264.15
0.92 264.15
5.42 264.15
5.42 271.65
2.42 271.65
2.42 285.65
6.42 285.65
0.92 335.65
6.42 314.15
2.42 314.15
2.42 321.15
5.42 321.15
5.42 335.65
5.42 335.65
5.42 314.15
5.42 299.65
5.42 281.65
5.42 233.15
5.42 214.65
5.42 193.15
5.42 171.65
6.92 171.65
6.92 150.65
8.42 150.65
5.92 160.65
3.92 150.65
4.92 150.65
4.92 136.15
6.42 136.15
5.42 136.15
3.92 136.15
2.42 136.15
5.42 356.65
9.92 136.15
8.42 136.15
7.42 136.15
5.92 136.15
4.42 136.15
0.42 136.15
1.92 150.65
0.42 136.15
6.42 136.15
1.92 136.15
6.42 136.15
4.92 136.15
5.92 136.15
2.42 136.15
0.92 136.15
8.92 150.65
5.42 136.15
4.92 299.65
8.92 321.65
5.42 314.15
1.92 356.65
5.42 136.15
8.92 314.15
2.92 164.65
4.92 356.65
3.42 333.65
7.42 335.65
0.42 345.65
5.42 250.15
6.92 335.65
5.42 261.15
5.42 356.65
6.42 298.65
6.42 313.15
3.42 136.15
6.42 306.15
5.92 264.15
1.42 353.65
2.92 335.65
9.92 167.65
0.92 150.65
8.42 150.65